M = 4;
N = 8;

e = [22,18,18,45,45,45,45,3];

c = [|0,4,4,0,0,0,0,0,
     |0,0,0,2,2,0,0,0,
     |0,0,0,0,0,2,2,0,
     |0,0,0,0,0,3,0,2,
     |0,0,0,0,0,0,3,2,
     |0,0,0,3,0,0,0,2,
     |0,0,0,0,3,0,0,2,
     |0,0,0,0,0,0,0,0|];
